Problem:    02
Rows:       4
Columns:    2
Non-zeros:  8
Status:     OPTIMAL
Objective:  z = 600 (MAXimum)

   No.   Row name   St   Activity     Lower bound   Upper bound    Marginal
------ ------------ -- ------------- ------------- ------------- -------------
     1 Produzione[A]
                    NU          6000                        6000           0.1 
     2 Produzione[B]
                    B           2000                        4000 
     3 Produzione[C]
                    B           6000                        8000 
     4 z            B            600                             

   No. Column name  St   Activity     Lower bound   Upper bound    Marginal
------ ------------ -- ------------- ------------- ------------- -------------
     1 x[Forn1]     NL             0             0                       < eps
     2 x[Forn2]     B          20000             0               

Karush-Kuhn-Tucker optimality conditions:

KKT.PE: max.abs.err = 0.00e+000 on row 0
        max.rel.err = 0.00e+000 on row 0
        High quality

KKT.PB: max.abs.err = 0.00e+000 on row 0
        max.rel.err = 0.00e+000 on row 0
        High quality

KKT.DE: max.abs.err = 3.47e-018 on column 2
        max.rel.err = 3.27e-018 on column 2
        High quality

KKT.DB: max.abs.err = 0.00e+000 on row 0
        max.rel.err = 0.00e+000 on row 0
        High quality

End of output
